9

0  4  1  1  8  9  9  5  9  
4  0  7  0  2  8  0  4  0  
1  7  0  4  2  8  0  6  0  
1  0  4  0  3  0  3  9  3  
8  2  2  3  0  9  1  4  6  
9  8  8  0  9  0  8  3  0  
9  0  0  3  1  8  0  4  6  
5  4  6  9  4  3  4  0  4  
9  0  0  3  6  0  6  4  0  

0  3  2  0  3  8  6  0  8  
3  0  1  2  4  9  2  0  2  
2  1  0  9  5  0  2  8  2  
0  2  9  0  0  9  5  6  4  
3  4  5  0  0  6  2  9  6  
8  9  0  9  6  0  0  7  5  
6  2  2  5  2  0  0  4  2  
0  0  8  6  9  7  4  0  2  
8  2  2  4  6  5  2  2  0  
